
 102   30
  10   10   10   10   10   10   10   10   10   10   10   10   10   10   10   10   10   10   10   10   10   10   10   10   10   10   10   10   10   10

   0   0   0   0   0   0   0   0   0   0   0   0   0   0   0   0   0   0   0   0   0   0   0   0   0   0   0   0   0   0   0  26 2 3 4 5 6 7 8 9 10 11 12 13 14 15 16 17 18 19 20 22 27 31 32 36 38 42 
   1   0   0   1   0   0   0   0   0   0   4   0   0   0   0   0   0   0   0   0   0   0   1   0   2   0   0   0   0   0   0  10 69 63 52 47 45 43 39 29 26 24 
   4   0   0   0   0   0   3   0   0   0   0   0   0   0   0   0   0   0   0   0   0   7   8   0   0   0   0   0   0   0   0  14 89 85 77 76 69 68 66 64 58 52 39 30 26 23 
   7   0   0   9   0   0   0   0   0   1   0   0   0   0   0   0   0   0   0   0   0   0   0   0   0   0   0   0   0   0   0   9 85 76 68 66 57 54 30 25 23 
   6   0   0   0   0   0   0   0   0   7   0   4   0   0   0   0   0   4   0   1   0   0   0   0   0   0   0   0   1   0   2  22 101 98 97 89 88 86 77 76 71 67 66 65 63 62 61 58 57 52 46 45 40 39 
   6   0   0   7   0   0   0   0   0   0   0   0   0   0   4   2   0   3   2   4   0   0   0   0   0   0   0   0   0   0   0  10 86 69 62 56 53 52 47 45 37 21 
   2   0   0   0   0   1   0   0   4   0   0   0   0   2   0   6   0   0   0   0   0   0   0   0   0   0   0   0   0   0   0  19 98 87 86 76 71 68 66 65 64 62 60 57 56 54 53 48 46 45 34 
   7   0   0   5   0   0   0   0   0   0   0   0   1   0   0   6   2   0   0   5   0   0   0   0   0   1   0   1   0   0   0  20 100 99 89 87 86 77 76 71 68 67 66 63 62 59 57 53 50 46 43 33 
   7   0   0   0   0   0   0   0   0   0   0   0   0   0   0   0   0   0   0   0   1   0   8   0   0   3   0   0   0   0   0  15 89 86 77 76 67 66 63 59 58 53 50 47 44 39 26 
   8   0   0   0   0   0   0   0   0   0   0   0   0   0   4   0   0   0   0   0   0   0   0   0   0   0   0   6   0   0   0  12 97 90 87 77 68 66 63 62 61 58 51 28 
   2   0   0   0   1   0   0   0   0   0   0   0   0   0   0   0   0   0   0   0   0   6   0   0   7   0   1   0   0   0   0  19 101 100 99 98 97 91 89 87 86 67 63 60 59 58 55 53 52 48 47 
   2   0   0   0   0   7   0   0   0   0   0   0   9   0   0   0   0   2   0   0   0   0   0   0   0   0   0   0   8   0   0  15 100 95 91 89 88 87 85 64 62 61 59 57 55 52 29 
   6   0   2   0   0   0   0   0   0   0   0   0   0   0   0   0   0   0   0   0   0   0   0   0   0   0   0   0   0   0   6  18 101 100 98 97 90 85 76 75 66 64 63 62 58 57 55 52 49 47 
   9   0   8   0   9   0   0   1   0   6   0   0   0   0   0   0   0   0   0   0   6   0   2   0   0   0   0   0   0   0   0  15 100 98 97 91 89 87 85 68 61 58 53 48 47 46 45 
   9   0   0   0   0   0   0   8   0   0   0   0   6   0   7   0   3   0   0   0   0   0   0   1   0   7   0   0   0   0   0  14 100 91 89 88 76 75 74 66 61 57 53 52 41 37 
   3   0   8   8   0   0   0   0   0   0   0   0   0   0   0   0   0   0   0   0   0   0   0   0   0   0   0   0   0   0   5  16 101 99 98 96 91 90 89 87 75 69 66 60 59 52 47 41 
   8   0   0   0   0   0   0   0   0   0   0   0   0   0   0   0   0   0   0   7   7   0   0   0   0   0   0   4   0   0  10   9 91 68 63 59 58 48 46 44 35 
   2   0   0   0   0   0   0   0   0   0   5   0   0   0   0   7   5   0   3   0   0   0   6   0   0   0   5   0   0   0   0  17 101 100 98 96 95 94 87 71 69 67 61 59 58 57 53 52 40 
   6   0   0   5   0   0   0   0   0   0   0   0   0   0   7   0   0   0   0   0   0  10   0   0   0   0   0   0   0   0   0  12 98 97 89 86 77 76 66 60 59 47 46 39 
   1   0   0   0   5   0   0   8   3   0   0   0   0   0   0   0   0   0   0   0   0   0   0   0   0   0   0  10   0   0   0  19 100 97 96 95 92 91 90 88 87 86 76 74 68 66 61 59 57 55 52 
   7   0   0   0   0   0   0   0   0   0   0   6   0   0   0   0   0   0   0   0   0   0   0   0   0   0   0   0   0   0   0  16 100 91 90 89 87 85 83 71 70 63 61 60 59 58 57 48 
  10   0   0   0   0   0   3   4   5   0   0   0   0   0   0   0  10   0   0   0   0   0   0   0   0   0   0   0   0   2   0   8 100 89 86 76 67 66 48 37 
   8   1   3   0   0   0   0   0   0   0   0   0   7   0   0   0   0   0   0   8   0   0   0   0   0   0   0   0   0   0   2  14 99 98 97 96 91 87 86 71 67 65 62 59 53 46 
  10   0   0   0   0   0   0   0   7   0   0   0   4   0   0   0   0   0   0   7   0   0   0   0   0   0   0   0   0   0   0  15 100 94 89 86 85 77 76 75 71 70 65 61 59 58 53 
   8   3   8   0   0   0   0   0   0   0   0   0   0   0   0   6   0   0   0   0   0   0   0   0   0   0   4   7   0   4   0  12 100 98 94 92 90 89 65 63 61 60 52 48 
   5   0   0   0   0   0   5   0   0   0   0   0   0   0   5   0   0   0   0   0  10   0   0   0   0   0   0   6   5   0   0  14 100 99 97 96 93 92 90 87 71 70 65 60 55 48 
   4   0  10   0   0   8   0   0   0   0   0   0   0   0   0   5   0   0   0   8   0   0   0   0   0   8   0   0   0   0   0  13 98 97 89 88 85 84 82 77 75 72 63 61 47 
   1   0   0   0   0   0   0   0   0   0   0   0   7   0   0   0   0   0   0   0   0   0   0   0   0   0   0   6   0   0   0  15 100 95 93 89 86 85 84 76 75 73 71 70 65 60 55 
   2   0   0   0   0   0   0   0   0   0   0   0   0   0   0   0   0   0   0   0   0   0   0   0   0   0   0   0   0   0   0  14 98 97 96 94 93 86 75 73 71 70 67 66 65 60 
   7   0   0   0   9   0   8   0   0   5   0   0   0   7   0   0   0   0   0   0  10   0   0   0   6   0   0   0   0   5   8  11 100 98 97 96 95 91 75 70 59 55 53 
   1   0   0   0   0   0   0   0   0   0   0   0   0   0   0   6   0   0   0   0   0   0   6   0   0   0   2   0   3   0   0   9 99 98 97 90 88 84 70 59 43 
   5   0   5   0   0   5   0   0   0   0   0   0   0   6   0   0   0   0   0   0   0   4   0   0   7   0   0   0   0   0   0  15 99 97 96 95 93 87 85 83 82 76 74 70 67 62 57 
   3   9   0   0   0   0   0   0   0   0  10   5   0   0   0   5   0   0   0   0   0   0   0   0   4   7   0   0   0   0   0  10 98 97 96 94 93 92 91 83 70 48 
   2   0   0   0   0   3   0   0   0   0   0   0   6   0   0   0   0   9   0   0   0   6   0   0   8   0   0   8   0   0   0  13 101 97 89 88 84 83 77 75 74 73 72 59 58 
   8   0   0   0   0   8   8   0   0   0   2   0   4   0   0   0   0   0   0   7   0   0   0   6   0   0   0   0   0   0   0  12 101 100 97 95 92 89 85 73 71 70 65 55 
  10   0   0   0   0   0   0   0   0   0   4   0   0   0   0   0   0   0   0   0   0   0   0   0   0   0  10   0   0   7   0  12 100 99 98 97 91 89 87 71 70 68 67 59 
   2   0   0   0   0   0   0   0   0   0   0   0   0   0   0   0   0   0   0   0   5   0   0   0   0   0   0   5   0   0   0   8 98 97 96 92 87 84 65 46 
   2   0   0   9   0   0   0   4   0   0   0   0   6   6   5   0   0   0   0   0   0   0   0   0   5   0   0   0   0   0   0  15 100 99 96 95 94 93 92 87 85 84 82 81 78 73 71 
   4   0   0   0   0   0   0   9   0   0   3   0   0   0   0   0   0   0   0   0   0   0   6   0   5   0   0   0   0   0   0  12 100 99 96 95 93 90 87 84 81 74 73 70 
   5   4   5   0   0   0   0   0   0   0   0   0   7   2   0   0   0   6   0   0   0   0   0   0   0   0   0   7   0   9   0  11 92 90 85 84 83 82 75 74 73 70 60 
   2   0   0   0   0   0   0   0   0   0   0   0   0   0   0   0   0   0   0   0   0   0   0   0   0   0   0   0   0   0   0   9 97 95 92 86 83 81 80 70 55 
   7   0   0   0   0   0   0   0   0   0   0   0   0   0   0   0   0   0   0   0   0   6   6   0   0   0   5   0   0   0   0  12 100 98 96 95 94 93 91 85 81 79 78 74 
   6   0   0   0   0   0   0   0   0   0   0   0   0   4   0   0   0   0   0   7   0   0   0   0   0   0   0   0   0   0   0   8 96 95 94 83 81 74 73 58 
   8   0   0   0   0   0   0   0   0   0   0   0   0   0   0   0   0   0   0   0   0   0   0   0   0   0   0   0   0   0   0  11 98 96 92 90 88 84 83 82 81 78 73 
   5   0   0   0   0   0   7   0   0   0   0   0   0   0   0   0   2   0   0  10   0   9   0   6   0   0   0   0   0   0   9   8 99 94 84 83 82 74 72 59 
   9   8   0   0   0   0   0   0   0   0   4   0   0   0   0   0   0   0   0   0   0   0   0   0   0   0   0   0   0   0   0   7 95 93 83 80 73 70 55 
   1   0   0   0   0   0   0   0   0   0   5   0   0   0   0   0   0   0   0   0   0   0   0   0   0   0  10   0   0   0   0   6 94 92 78 73 71 65 
   8   0   6   4   0   0   0   0   0   0   0   0   0   0   0   8   0   0   0   0   0   0   0   0   0   0   0   0   0   0   8   7 95 88 84 82 75 74 73 
   3   5   0   8   0   0   0   0   0   0  10   0   8   0   5   0   0   0   0   0   4   5   0   0   0   0   0   0   0   0   0   7 96 95 89 84 80 77 70 
   7   0   0   0   0   0   0   0   0  10   0   0   0   0   0   0  10   0   0   0   0   0   0   0   0   0   2   0   0   0   0   8 101 94 93 92 83 82 80 72 
   7   9   0   0   0   0   0   0   0   0   9   0   0   7   0   0   0   0   0   0   0   4   0   6   7   0   0   0   9   0   0   7 98 95 94 93 89 78 74 
   1   0   0   0   0   0   0   0   0   0   0   0   3   0   0   0   0   0   0   0   0   6   0   0   0   0   0   0   0   0   4   6 93 83 82 80 79 70 
   1   0   0   0   0   0   0   0   0   0   0   0   0   0   0   0   0   0   0   6   0   2   0   0   0   0   0   0   0   0   9   6 92 90 84 83 81 73 
   2   0   0   0   0   0   5   0   0   0   0   0   8   0   0   0   0   0   0   0   0   0   0   0   0   0   0   0   0   0   0   4 96 93 74 73 
  10   0   0   0   0   5   0   0   0   0   0   0   0   0   0   0   0   5   0   0   0   0   0   0   0   7   0   6   9   0   0   4 94 82 79 72 
   2   0   0   0   0   0   0   0   0   0   0   0   3   0   0   0   0   0   3   0   0   0   0   0   0   3   0   0   0   0   0   4 97 81 80 72 
   5   0   0   0   6   0   0   0   0   0   0   0   0   0   0   0   0   0   0   0   0   0   0   0   0   3   0   0   0   0   0   3 84 73 72 
   7   0   0   0   0   0   0   0   9   0   0   0   0   0   0   0   0   0   0   0   0   7   0   0   0   0   0   0   0   0   0   4 92 82 80 78 
   4   7   0   0   0   0   0   4   4   0   0   5   0   0   0   0   0   0   7   0   0   0   0   0   0   0   0   0   0   0   0   3 93 80 79 
   9   0   0   0   0   0   0   0   0   0   0   0   0   0   4   0   0   0   0   0   6   0   0   0   0   7   0   0   0   0   6   3 81 80 79 
   8   0   0   0   9   0  10   0   0   0   0   0   0   0   0   0   0   0   0   4   0   0   0   9   0   0   8   0   6   0   0   3 99 81 79 
   5   0   0   0   0   0   0   0   0   0   0   0   0   0   0   0   6   0   8   0   0   0   0   0   0   0   0   0   0   0   0   3 81 80 78 
   3   5   0   0   0   3   6   0   0   0   7   0   0   0   0   0   0   0   0   0   0   0   0   0   5   0   0   0   0   0   0   2 96 73 
   3   0   0   3   0   0   0   0   0   0   0   0   0   0   0   0   0   0   0   7   0   0   0   0   0   0   5   0   4   0   0   2 79 72 
   7   0   0   0   0   9   0   7   3   0   0   0   0   0   0   0   0   6   0   0   0   0   7   0   0   0   6   0   0   0   0   2 83 81 
   4   0   0   0   0   0   0   0   0   7   0   7   0   0   8   0   0   0   9   0   0   0   0   0   0   6   0   0   0   0   4   2 84 82 
   4   0   0   0   0   0   0   0   0   3   0   0   0   0   0   0   0   0   0   0   0   0   0   0   0   0   0   0   0   0   0   2 92 84 
  10   0   3   8   5   0   5   0   0   0   0   0   0  10   0   0   0   0   0   0   0   0   0   0   0   6   0   0   0   0   4   2 83 79 
   7   0   0   0   6   0   0   0   0   0   0   7   0   0   8   8   0   0   0   0   0   0   9   0   0   0   0   0   0   0   0   2 88 82 
  10   0   0   0   0   0   0   0   0   0   0   0   0   9   0   4   0   0   0   0   0   0   0   0  10  10   0   0   0   0   0   1 72 
   2   0   0   0   0   0   0   0   0   0   0   0   0   0   0   0   0   0   0   0   0   0   0   0   0   0   0   0   0   0   0   1 74 
   7   0   0   0   0   0   0   0   0   0   0   0   0   0   0   0   0   0   0   0   0   0   0   0   0   7   0   0   0   0   0   1 78 
   9   4   0   0   0   0   0   0   0   0   0   0   0   0   0   0   0  10   0   0   0   0   0   0   0   0   0   0   0   0   0   1 79 
   8   0   0   5   0   0   0   0   0   0   8   0   0   0   0   0   5   0   0   0   0   0   0   0   7   0   0   0   0   0   0   1 80 
   1   0   0   0   0   0   0   0   0   0   6   0   0   0   0   0   0   9   0   0   0   0   0   0   0   0   0   0   0   0   0   1 81 
   8   0   0   0   0   0   0   0   0   6   0   0   0   0   0   0  10   0   0   3   0   0   0   0   0   0   0   0   0   0   0   1 78 
   2   0   0   0   0   0   7   0   0   0   0   0   0   0   0   0   0   0   0   0   8   0   0   0   0   0   0   0   6   0   0   1 91 
   7   0   0   0   0   0   0   0   0   0   0   0   0   0  10   0   0   0   0   0   0   0   0   0   0   0   0   0   0   0   0   1 102
  10   0   0   0   0   0   0   0   9   8   0   0   7   0   0   0   0   0   0   0   8   0   0   0   0   0  10   0   0   5   0   1 102
   7   0   0   0   0   0   0   0   0   0   0   0   6   0   0   0   0   0   0   0   0   0   0   7   0   0   0   0   0   8   0   1 102
  10   0   0   0   0   0   5   0   0   0   0   0   0   0   0   0   0   0   0   0   0   0   0   0   0   0   9   0   0   5   0   1 102
  10   7   0   0   0   0   0   0   0   0   0   0   0   0   0   0   0   0   0   0   0   0   0   0   0   9   0   0   0   0   0   1 102
   7   0   0   0   7   0   0   0   0   0   0   0   0   0   0   0   0   0   0   0   0   0   0   0   0   0   0   7   5   0   4   1 102
   9   0   0   0   0   0   0   0   0   0   0   0   6   0   0   0   0   0   0   0   0   0   0   0   0   0   6   4   8   0   0   1 102
   1   0   7   0   3   0   0   0   0   0   0   0   0   0   0   0   0   0   0   0   0   0   0   0   0   0   0   0   0   6   0   1 102
   2   0   0   0   0   0   6   0   0   0   0   0   0   0   2   8   0   0   0   0   0   0   0   0   0   0   0   7   0   0   0   1 102
   7   0   0   0   0   0   0   0   0   0   7   0   0   5   0   0   0   5   0   0   0   0   0   0   0   0  10   0   0   0   0   1 102
   2   0   0   0   0   0   0   0   0   0   0   0   0   0   0   8   0   7   0   0   0   0   0   0   5   0   0   0   0   0   6   1 102
  10   0   0   0   0   0   0   0   3   0   0   0  10   0   0   0   0   9   0   0   7   0   0   0   0   0   3   7   0   0   0   1 102
   2   0   0   0   0   0   0   0   0   0   0   0   0   0   8   0   0   0  10   0   5   0   0   7   0   0   0   0   0   6   5   1 102
   4   0   0   0   0   0   0   0  10   0   0  10   0   0   0   0   0   0   0   0   0   0   0   0   0   0   0   0   0  10   0   1 102
   2   0   0   0   7   8   0   0   0   7   0   0   0   7   4   0   0   0   0   0   0   0   0   0   0   6   0   0   0   0   0   1 102
   5   0   0   0   0   0   0   9   0   0   0   0   0   0   0   0   0   0   0   0   0   0   0   0   0   0   0   0   0   0   0   1 102
  10   0   7   0   0   7   0   0   0   0   0   0   0   6   5   0   0   3   0   0   0   0   0   0   0   0   0   0   0   0   0   1 102
   6   0   0   0   0   0   0   0   0   6   0   0   0   0   0   2   0   0   0   0   5   0   0   0   0   0   0   7   0   0   0   1 102
   1   0   4   0   0   8   0   0   0   0   0   0   0   7   8   0   7   0   6   0   0   0   0   0   0   6   0   4   0   8   0   1 102
   9   0   0   0   5   0   0   0   0   0   0   4   0   0   0  10   0   0   0   0   0   0   0   0   0   0   0   0   5   0   0   1 102
   2   0   8   6   0   0   0   0   0   0   0   0   0   0   8   0   0   0   0   0   0   0   0   0   0   0   0   0   0   0   0   1 102
   1   0   0   0   0   0   0   0   9   0   0   0   6   0   0   5   0   0   0   0   0   0   0   0   0   0   0   0   0   3   0   1 102
   9  10   0   0   0   0   0   0   0   0   0   0   0   0   0   0   0   0   0   0   0   0   0   0   0   0   0   0   0   0  10   1 102
  10   0   0   0   0   0   0   0   0   0   0   0   6   0   0   0   0   0   0   0   2   0   7   0   0   0   6   0   9   0   0   1 102
   0   0   0   0   0   0   0   0   0   0   0   0   0   0   0   0   0   0   0   0   0   0   0   0   0   0   0   0   0   0   0   0 
